attachment/milp/1-knapsack/knapsack-multiway.dat
data;

set Items := A B C D E F G H I J;

param Weight :=
	A	16.1
	B	19.2
	C	15.0
	D	14.7
	E	11.3
	F	20.1
	G	17.5
	H	14.5
	I	14.8
	J	18.1
	;

param Knapsack_Count := 3;

end;
