attachment/milp/1-knapsack/knapsack-multiway.log
GLPSOL: GLPK LP/MIP Solver, v4.65
Parameter(s) specified in the command line:
 -m knapsack-multiway.mod -d knapsack-multiway.dat --log knapsack-multiway.log
Reading model section from knapsack-multiway.mod...
41 lines were read
Reading data section from knapsack-multiway.dat...
20 lines were read
Generating Partitioning...
Generating Total_Weights...
Generating Total_Weight_from_Below...
Generating Total_Weight_from_Above...
Generating Difference...
Model has been successfully generated
GLPK Integer Optimizer, v4.65
20 rows, 35 columns, 77 non-zeros
30 integer variables, all of which are binary
Preprocessing...
19 rows, 35 columns, 75 non-zeros
30 integer variables, all of which are binary
Scaling...
 A: min|aij| =  1.000e+00  max|aij| =  2.010e+01  ratio =  2.010e+01
GM: min|aij| =  9.333e-01  max|aij| =  1.071e+00  ratio =  1.148e+00
EQ: min|aij| =  8.943e-01  max|aij| =  1.000e+00  ratio =  1.118e+00
2N: min|aij| =  5.000e-01  max|aij| =  1.131e+00  ratio =  2.263e+00
Constructing initial basis...
Size of triangular part is 19
Solving LP relaxation...
GLPK Simplex Optimizer, v4.65
19 rows, 35 columns, 75 non-zeros
      0: obj =  -1.613000000e+02 inf =   1.210e+02 (3)
     15: obj =   2.842170943e-14 inf =   0.000e+00 (0)
OPTIMAL LP SOLUTION FOUND
Integer optimization begins...
Long-step dual simplex will be used
+    15: mip =     not found yet >=              -inf        (1; 0)
+    34: >>>>>   1.030000000e+01 >=   0.000000000e+00 100.0% (15; 0)
+    44: >>>>>   8.800000000e+00 >=   0.000000000e+00 100.0% (16; 6)
+    65: >>>>>   8.500000000e+00 >=   0.000000000e+00 100.0% (23; 9)
+   138: >>>>>   8.400000000e+00 >=   0.000000000e+00 100.0% (47; 18)
+   153: >>>>>   4.100000000e+00 >=   0.000000000e+00 100.0% (54; 19)
+   199: >>>>>   3.800000000e+00 >=   0.000000000e+00 100.0% (56; 34)
+   466: >>>>>   2.700000000e+00 >=   0.000000000e+00 100.0% (78; 134)
+  3235: >>>>>   2.500000000e+00 >=   0.000000000e+00 100.0% (121; 2208)
+  4384: mip =   2.500000000e+00 >=     tree is empty   0.0% (0; 3711)
INTEGER OPTIMAL SOLUTION FOUND
Time used:   0.2 secs
Memory used: 0.4 Mb (394972 bytes)
Smallest difference: 2.5 (55.3 - 52.8)
1: C F J (53.2)
2: D E H I (55.3)
3: A B G (52.8)
Model has been successfully processed
